WARNING: for repeatability, setting FPU to use double precision
============================[ Problem Statistics ]=============================
|                                                                             |
|  Number of variables:            50                                         |
|  Number of clauses:             218                                         |
|  Parse time:                   0.00 s                                       |
|                                                                             |
============================[ Search Statistics ]==============================
| Conflicts |          ORIGINAL         |          LEARNT          | Progress |
|           |    Vars  Clauses Literals |    Limit  Clauses Lit/Cl |          |
===============================================================================
===============================================================================
restarts              : 1
conflicts             : 66             (44059 /sec)
decisions             : 75             (0.00 % random) (50067 /sec)
propagations          : 824            (550067 /sec)
conflict literals     : 230            (16.67 % deleted)
Memory used           : 20.00 MB
CPU time              : 0.001498 s

UNSATISFIABLE
